SCIP Status        : solving was interrupted [time limit reached]
Total Time         :    3600.01
  solving          :    3600.00
  presolving       :       0.39 (included in solving)
  reading          :       0.01
  copying          :       3.58 (51 #copies) (minimal 0.00, maximal 0.16, average 0.07)
Original Problem   :
  Problem name     : bbbenchmark/g05_100.6.cut
  Variables        : 101 (100 binary, 0 integer, 0 implicit integer, 1 continuous)
  Constraints      : 1 initial, 1 maximal
  Objective        : minimize, 1 non-zeros (abs.min = 1, abs.max = 1)
Presolved Problem  :
  Problem name     : t_bbbenchmark/g05_100.6.cut
  Variables        : 1869 (100 binary, 0 integer, 1754 implicit integer, 15 continuous)
  Constraints      : 1797 initial, 11838 maximal
  Objective        : minimize, 1 non-zeros (abs.min = 1, abs.max = 1)
  Nonzeros         : 8643 constraint, 202 clique table
Presolvers         :   ExecTime  SetupTime  Calls  FixedVars   AggrVars   ChgTypes  ChgBounds   AddHoles    DelCons    AddCons   ChgSides   ChgCoefs
  boundshift       :       0.00       0.00      0          0          0          0          0          0          0          0          0          0
  convertinttobin  :       0.00       0.00      0          0          0          0          0          0          0          0          0          0
  domcol           :       0.00       0.00      1          0          0          0          0          0          0          0          0          0
  dualagg          :       0.00       0.00      0          0          0          0          0          0          0          0          0          0
  dualcomp         :       0.00       0.00      1          0          0          0          0          0          0          0          0          0
  dualinfer        :       0.00       0.00      0          0          0          0          0          0          0          0          0          0
  dualsparsify     :       0.00       0.00      1          0          0          0          0          0          0          0          0          0
  gateextraction   :       0.00       0.00      0          0          0          0          0          0          0          0          0          0
  implics          :       0.00       0.00      2          0          0          0          0          0          0          0          0          0
  inttobinary      :       0.00       0.00      0          0          0          0          0          0          0          0          0          0
  qpkktref         :       0.00       0.00      0          0          0          0          0          0          0          0          0          0
  redvub           :       0.00       0.00      0          0          0          0          0          0          0          0          0          0
  sparsify         :       0.00       0.00      1          0          0          0          0          0          0          0          0          0
  stuffing         :       0.00       0.00      0          0          0          0          0          0          0          0          0          0
  trivial          :       0.00       0.00      4          0          0          0          0          0          0          0          0          0
  tworowbnd        :       0.00       0.00      0          0          0          0          0          0          0          0          0          0
  dualfix          :       0.00       0.00      4          0          0          0          0          0          0          0          0          0
  genvbounds       :       0.00       0.00      0          0          0          0          0          0          0          0          0          0
  probing          :       0.32       0.00      1          0          0          0          0          0          0          0          0          0
  pseudoobj        :       0.00       0.00      1          0          0          0          1          0          0          0          0          0
  symmetry         :       0.00       0.00      0          0          0          0          0          0          0          0          0          0
  vbounds          :       0.00       0.00      1          0          0          0          0          0          0          0          0          0
  varbound         :       0.00       0.00      2          0          0          0          0          0          0          0          0          0
  and              :       0.01       0.00      2          0          0          0          0          0          0          0          0          0
  linear           :       0.00       0.00      2          0          0          0          0          0          0          0          0          0
  logicor          :       0.00       0.00      0          0          0          0          0          0          0          0          0          0
  bounddisjunction :       0.00       0.00      0          0          0          0          0          0          0          0          0          0
  nonlinear        :       0.06       0.01      5          0          0          0          1          0          0       1796          0          0
  benders          :       0.00       0.00      0          0          0          0          0          0          0          0          0          0
  components       :       0.00       0.00      1          0          0          0          0          0          0          0          0          0
  root node        :          -          -      -          0          -          -         15          -          -          -          -          -
Constraints        :     Number  MaxNumber  #Separate #Propagate    #EnfoLP    #EnfoRelax  #EnfoPS    #Check   #ResProp    Cutoffs    DomReds       Cuts    Applied      Conss   Children
  benderslp        :          0          0          0          0      63966          0          0      12556          0          0          0          0          0          0          0
  integral         :          0          0          0          0      63966          0          0      12556          0          0       1000          0          0        582     126894
  varbound         :         14         14        113     441183          0          0          0         28          0          0      13524          0          0          0          0
  and              :       1754       1754      84007     582319         20          0          0         28     389475          3    1708243      18653      17150          0          0
  linear           :         29+       129        113     582371         20          0          0         26       1912         27     195675          0          0          0          0
  logicor          :          0+      8806          0      93039          0          0          0          0        118        323         70          0          0          0          0
  bounddisjunction :          0+      1517          0      50197          0          0          0          0          2         15          0          0          0          0          0
  benders          :          0          0          0          0         20          0          0         27          0          0          0          0          0          0          0
  countsols        :          0          0          0          0         20          0          0         27          0          0          0          0          0          0          0
  components       :          0          0          0          0          0          0          0          0          0          0          0          0          0          0          0
Constraint Timings :  TotalTime  SetupTime   Separate  Propagate     EnfoLP     EnfoPS     EnfoRelax   Check    ResProp    SB-Prop
  benderslp        :       0.09       0.00       0.00       0.00       0.08       0.00       0.00       0.01       0.00       0.00
  integral         :      53.05       0.00       0.00       0.00      53.03       0.00       0.00       0.02       0.00       0.00
  varbound         :       0.37       0.00       0.00       0.37       0.00       0.00       0.00       0.00       0.00       0.00
  and              :      92.67       0.00      60.14      31.86       0.00       0.00       0.00       0.01       0.30       0.36
  linear           :       3.59       0.00       0.04       3.45       0.00       0.00       0.00       0.01       0.04       0.05
  logicor          :       7.52       0.00       0.00       7.50       0.00       0.00       0.00       0.00       0.00       0.02
  bounddisjunction :       1.59       0.00       0.00       1.59       0.00       0.00       0.00       0.00       0.00       0.00
  benders          :       0.00       0.00       0.00       0.00       0.00       0.00       0.00       0.00       0.00       0.00
  countsols        :       0.00       0.00       0.00       0.00       0.00       0.00       0.00       0.00       0.00       0.00
  components       :       0.11       0.00       0.00       0.11       0.00       0.00       0.00       0.00       0.00       0.00
Propagators        : #Propagate   #ResProp    Cutoffs    DomReds
  dualfix          :          4          0          0          0
  genvbounds       :          0          0          0          0
  nlobbt           :          0          0          0          0
  obbt             :          0          0          0          0
  probing          :          0          0          0          0
  pseudoobj        :     267587          0          0         40
  redcost          :     161882          0          0      89558
  rootredcost      :         30          0          0          0
  symmetry         :          0          0          0          0
  vbounds          :      65533          0          0          0
Propagator Timings :  TotalTime  SetupTime   Presolve  Propagate    ResProp    SB-Prop
  dualfix          :       0.00       0.00       0.00       0.00       0.00       0.00
  genvbounds       :       0.35       0.00       0.00       0.35       0.00       0.00
  nlobbt           :       0.00       0.00       0.00       0.00       0.00       0.00
  obbt             :       0.00       0.00       0.00       0.00       0.00       0.00
  probing          :       0.32       0.00       0.32       0.00       0.00       0.00
  pseudoobj        :       0.49       0.00       0.00       0.49       0.00       0.00
  redcost          :      11.28       0.00       0.00      11.28       0.00       0.00
  rootredcost      :       0.48       0.00       0.00       0.47       0.00       0.01
  symmetry         :       0.29       0.00       0.00       0.29       0.00       0.00
  vbounds          :       0.51       0.00       0.00       0.51       0.00       0.00
Conflict Analysis  :       Time      Calls    Success    DomReds  Conflicts   Literals    Reconvs ReconvLits   Dualrays   Nonzeros   LP Iters   (pool size: [10000,10000])
  propagation      :       0.02        347        264          -        505       78.6          0        0.0          -          -          -
  infeasible LP    :       0.46        156        156          -       6114      133.9          0        0.0        375      146.7          0
  bound exceed. LP :      23.00       5673       5159          -     117031      108.0          2       64.5          0        0.0      58254
  strong branching :       0.00          0          0          -          0        0.0          0        0.0          -          -          0
  pseudo solution  :       0.00          0          0          -          0        0.0          0        0.0          -          -          -
  applied globally :       0.57          -          -          0      30212      114.9          -          -        375          -          -
  applied locally  :          -          -          -          0          0        0.0          -          -          0          -          -
Separators         :   ExecTime  SetupTime      Calls  RootCalls    Cutoffs    DomReds  FoundCuts ViaPoolAdd  DirectAdd    Applied ViaPoolApp  DirectApp      Conss
  cut pool         :       7.02          -      25853        140          -          -      42369    1610810          -          -          -          -          -    (maximal pool size:       2827)
  aggregation      :      19.09       0.00       6537        113          0          0       1121       1316          0        186        186          0          0
  > cmir           :          -          -          -          -          -          -          -       1316          0        186        186          0          -
  > flowcover      :          -          -          -          -          -          -          -          0          0          0          0          0          -
  > knapsackcover  :          -          -          -          -          -          -          -          0          0          0          0          0          -
  cgmip            :       0.00       0.00          0          0          0          0          0          0          0          0          0          0          0
  clique           :       0.00       0.00        113        113          0          0          0          0          0          0          0          0          0
  closecuts        :       0.00       0.00          0          0          0          0          0          0          0          0          0          0          0
  convexproj       :       0.00       0.00          0          0          0          0          0          0          0          0          0          0          0
  disjunctive      :       0.00       0.00          0          0          0          0          0          0          0          0          0          0          0
  eccuts           :       0.00       0.00          0          0          0          0          0          0          0          0          0          0          0
  gauge            :       0.00       0.00          0          0          0          0          0          0          0          0          0          0          0
  gomory           :       0.00       0.00          0          0          0          0          0          0          0          0          0          0          0
  > gomorymi       :          -          -          -          -          -          -          -          0          0          0          0          0          -
  > strongcg       :          -          -          -          -          -          -          -          0          0          0          0          0          -
  impliedbounds    :       0.49       0.00       6537        113          0          0         35          1          0          0          0          0          0
  interlattice     :       0.62       0.00         83         83          0          0         83          0         83         82          0         82          0
  interminor       :       0.00       0.00          0          0          0          0          0          0          0          0          0          0          0
  intersub         :       0.00       0.00          0          0          0          0          0          0          0          0          0          0          0
  intobj           :       0.00       0.00          0          0          0          0          0          0          0          0          0          0          0
  mcf              :       0.01       0.00          1          1          0          0          0          0          0          0          0          0          0
  minor            :       0.00       0.00          0          0          0          0          0          0          0          0          0          0          0
  mixing           :       0.01       0.00       6537        113          0          0          0          0          0          0          0          0          0
  oddcycle         :       0.00       0.00          0          0          0          0          0          0          0          0          0          0          0
  rapidlearning    :       0.02       0.00          0          0          0          0          0          0          0          0          0          0          0
  rlt              :       0.00       0.00         10         10          0          0          0          0          0          0          0          0          0
  zerohalf         :      62.34       0.00       5978         20          0          0      41213    1609493          0     221585     221585          0          0
Cutselectors       :   ExecTime  SetupTime      Calls  RootCalls   Selected     Forced   Filtered  RootSelec   RootForc   RootFilt 
  hybrid           :       1.52       0.00      24931        113     239003          0    1390543        277          0         13
Pricers            :   ExecTime  SetupTime      Calls       Vars
  problem variables:       0.00          -          0          0
Branching Rules    :   ExecTime  SetupTime   BranchLP  BranchExt   BranchPS    Cutoffs    DomReds       Cuts      Conss   Children
  allfullstrong    :       0.00       0.00          0          0          0          0          0          0          0          0
  cloud            :       0.00       0.00          0          0          0          0          0          0          0          0
  distribution     :       0.00       0.00          0          0          0          0          0          0          0          0
  fullstrong       :       0.00       0.00          0          0          0          0          0          0          0          0
  inference        :       0.00       0.00          0          0          0          0          0          0          0          0
  leastinf         :       0.00       0.00          0          0          0          0          0          0          0          0
  lookahead        :       0.00       0.00          0          0          0          0          0          0          0          0
  mostinf          :       0.00       0.00          0          0          0          0          0          0          0          0
  multaggr         :       0.00       0.00          0          0          0          0          0          0          0          0
  nodereopt        :       0.00       0.00          0          0          0          0          0          0          0          0
  pscost           :       0.00       0.00          0          0          0          0          0          0          0          0
  random           :       0.00       0.00          0          0          0          0          0          0          0          0
  relpscost        :      52.83       0.00      63946          0          0          0       1000          0        680     126894
  vanillafullstrong:       0.00       0.00          0          0          0          0          0          0          0          0
Primal Heuristics  :   ExecTime  SetupTime      Calls      Found       Best
  LP solutions     :       0.24          -          -         20         20
  relax solutions  :       0.00          -          -          0          0
  pseudo solutions :       0.00          -          -          0          0
  strong branching :       0.04          -          -          1          1
  actconsdiving    :       0.00       0.00          0          0          0
  adaptivediving   :       5.06       0.00         31          0          0
  alns             :       2.87       0.00         20          4          4
  bound            :       0.00       0.00          0          0          0
  clique           :       0.01       0.00          1          0          0
  coefdiving       :       0.00       0.00          0          0          0
  completesol      :       0.00       0.00          0          0          0
  conflictdiving   :     104.95       0.00        710          0          0
  crossover        :       6.91       0.00         13          2          2
  dins             :       0.00       0.00          0          0          0
  distributiondivin:      93.89       0.00        421          0          0
  dps              :       0.00       0.00          0          0          0
  dualval          :       0.00       0.00          0          0          0
  farkasdiving     :       0.00       0.00          0          0          0
  feaspump         :       0.30       0.00          1          1          1
  fixandinfer      :       0.00       0.00          0          0          0
  fracdiving       :      54.79       0.00        423          0          0
  gins             :       0.07       0.00          0          0          0
  guideddiving     :      54.18       0.00        423          2          2
  indicator        :       0.12       0.00          0          0          0
  indicatordiving  :       0.00       0.00          0          0          0
  intdiving        :       0.00       0.00          0          0          0
  intshifting      :       0.80       0.00         78          0          0
  linesearchdiving :      54.55       0.00        423          0          0
  localbranching   :       0.00       0.00          0          0          0
  locks            :       0.01       0.00          1          0          0
  lpface           :       0.08       0.00          0          0          0
  mpec             :     155.58       0.00         11          2          1
  multistart       :       0.00       0.00          0          0          0
  mutation         :       0.00       0.00          0          0          0
  nlpdiving        :      15.67       0.00          7          0          0
  objpscostdiving  :      63.69       0.00         46          6          0
  octane           :       0.00       0.00          0          0          0
  ofins            :       0.11       0.00          0          0          0
  oneopt           :       0.14       0.00         34          0          0
  padm             :       0.00       0.00          0          0          0
  proximity        :       0.00       0.00          0          0          0
  pscostdiving     :      74.05       0.00        392          1          1
  randrounding     :       1.05       0.00      12525          0          0
  rens             :       0.00       0.00          0          0          0
  reoptsols        :       0.00       0.00          0          0          0
  repair           :       0.00       0.00          0          0          0
  rins             :       8.15       0.00         17          0          0
  rootsoldiving    :      42.52       0.00         35          0          0
  rounding         :       1.34       0.00       4168          0          0
  shiftandpropagate:       0.00       0.00          0          0          0
  shifting         :      44.93       0.00       9102          2          2
  simplerounding   :       0.13       0.00          0          0          0
  subnlp           :     119.00       0.00          0          0          0
  trivial          :       0.00       0.00          2          2          2
  trivialnegation  :       0.00       0.00          0          0          0
  trustregion      :       0.00       0.00          0          0          0
  trysol           :       0.11       0.00          0          0          0
  twoopt           :       0.00       0.00          0          0          0
  undercover       :       2.04       0.00          1          1          1
  vbounds          :       0.00       0.00          0          0          0
  veclendiving     :      49.71       0.00        423          0          0
  zeroobj          :       0.00       0.00          0          0          0
  zirounding       :       0.54       0.00       1000          0          0
  other solutions  :          -          -          -          0          -
Diving (single)    :      Calls      Nodes   LP Iters Backtracks  Conflicts   MinDepth   MaxDepth   AvgDepth  RoundSols  NLeafSols  MinSolDpt  MaxSolDpt  AvgSolDpt
  actconsdiving    :          0          -          -          -          -          -          -          -          -          -          -          -          -
  coefdiving       :          0          -          -          -          -          -          -          -          -          -          -          -          -
  conflictdiving   :        710      34729     960266        722      44220         61         88       71.7          0          -          -          -          -
  distributiondivin:        421      14865     734650        482       8508         45         75       57.9          0          -          -          -          -
  farkasdiving     :          0          -          -          -          -          -          -          -          -          -          -          -          -
  fracdiving       :        423      53953     502976        217       2990         54        744      150.8          0          -          -          -          -
  guideddiving     :        423      44664     503587        149       5152         56        544      129.0          0          2         91        104       97.5
  indicatordiving  :          0          -          -          -          -          -          -          -          -          -          -          -          -
  linesearchdiving :        423      19896     534864        206      19901         50        107       69.6          0          -          -          -          -
  pscostdiving     :        392      16537     753303        403      12215         48         79       64.6          0          1         66         66       66.0
  veclendiving     :        423      19067     486365        294      26075         55         83       68.5          0          -          -          -          -
Diving (adaptive)  :      Calls      Nodes   LP Iters Backtracks  Conflicts   MinDepth   MaxDepth   AvgDepth  RoundSols  NLeafSols  MinSolDpt  MaxSolDpt  AvgSolDpt
  actconsdiving    :          3        122       5209          3         54         55         58       57.0          0          -          -          -          -
  coefdiving       :         10        494      12385          5        557         57         78       69.2          0          -          -          -          -
  conflictdiving   :          0          -          -          -          -          -          -          -          -          -          -          -          -
  distributiondivin:          0          -          -          -          -          -          -          -          -          -          -          -          -
  farkasdiving     :          0          -          -          -          -          -          -          -          -          -          -          -          -
  fracdiving       :          2        539       9359          9         40        102        467      284.5          0          -          -          -          -
  guideddiving     :          1         98       1063          0         21        117        117      117.0          0          -          -          -          -
  indicatordiving  :          0          -          -          -          -          -          -          -          -          -          -          -          -
  linesearchdiving :         11        576      14955          3        521         58         94       72.5          0          -          -          -          -
  pscostdiving     :          1         42       2464          1         34         60         60       60.0          0          -          -          -          -
  veclendiving     :          3        131       3534          1        153         64         70       66.3          0          -          -          -          -
Neighborhoods      :      Calls  SetupTime  SolveTime SolveNodes       Sols       Best       Exp3  EpsGreedy        UCB TgtFixRate  Opt  Inf Node Stal  Sol  Usr Othr Actv
  rens             :          2       0.11       0.06         11          0          0    0.00000   -1.00000    0.53462      0.550    0    2    0    0    0    0    0    1
  rins             :          2       0.15       0.07         93          0          0    0.00000   -1.00000    0.46685      0.850    0    1    0    1    0    0    0    1
  mutation         :          2       0.21       0.09         66          0          0    0.00000   -1.00000    0.47370      0.850    0    1    0    1    0    0    0    1
  localbranching   :          5       0.29       0.17        213          3          3    0.00000   -1.00000    0.53359      0.879    0    1    0    3    1    0    0    1
  crossover        :          2       0.26       0.08         73          0          0    0.00000   -1.00000    0.47085      0.850    0    1    0    1    0    0    0    1
  proximity        :          2       0.27       0.21         80          0          0    0.00000   -1.00000    0.46878      0.850    0    1    0    1    0    0    0    1
  zeroobjective    :          2       0.21       0.05         73          0          0    0.00000   -1.00000    0.46601      0.850    0    1    0    1    0    0    0    1
  dins             :          3       0.28       0.17        322          1          1    0.00000   -1.00000    0.48638      0.812    0    1    0    2    0    0    0    1
  trustregion      :          0       0.00       0.00          0          0          0    0.00000   -1.00000    1.00000      0.900    0    0    0    0    0    0    0    0
Expressions        :   #IntEval  IntEvalTi   #RevProp  RevPropTi    DomReds    Cutoffs  #Estimate  EstimTime  Branching  #Simplify SimplifyTi Simplified
  pow              :          0       0.00          0       0.00          0          0          0       0.00          0          0       0.00          0
  prod             :       9900       0.00          0       0.00          0          0          0       0.00          0       6704       0.00          0
  sum              :          8       0.00          2       0.00          0          0          0       0.00          0          3       0.00          2
  var              :       6416       0.00          0       0.00          0          0          0       0.00          0      15479       0.00          0
  varidx           :          0       0.00          0       0.00          0          0          0       0.00          0          0       0.00          0
LP                 :       Time      Calls Iterations  Iter/call   Iter/sec  Time-0-It Calls-0-It    ItLimit
  primal LP        :      98.40       8691          0       0.00       0.00      98.35       8691
  dual LP          :    2152.80     128386   14301248     119.83    6643.09       4.35       9044
  lex dual LP      :       0.00          0          0       0.00          -
  barrier LP       :       0.00          0          0       0.00          -       0.00          0
  resolve instable :       0.00          0          0       0.00          -
  diving/probing LP:     502.93      15940    5125785     321.57   10191.85
  strong branching :      23.74       1921     228621     119.01    9630.20          -          -         81
    (at root node) :          -         19       5378     283.05          -
  conflict analysis:       9.06       5986      58254       9.73    6429.80
NLP relaxation     :
  solve time       :      15.20 (16 calls)
  convexity        :  nonconvex (43 linear rows, 0 convex ineq., 0 nonconvex ineq., 1754 nonlinear eq. or two-sided ineq.)
NLP Solvers        :  #Problems  ProblemTi    #Solves  SolveTime      #Iter  Time/Iter      #Okay #TimeLimit #IterLimit #LObjLimit #Interrupt  #NumError #EvalError  #OutOfMem #LicenseEr #OtherTerm   #GlobOpt    #LocOpt  #Feasible #LocInfeas #GlobInfea #Unbounded   #Unknown
  ipopt            :         12       4.96         43     176.61       1812       0.10         43          0          0          0          0          0          0          0          0          0          0         27          0         10          0          0          6
B&B Tree           :
  number of runs   :          1
  nodes            :      93939 (63447 internal, 30492 leaves)
  feasible leaves  :         20
  infeas. leaves   :          6
  objective leaves :      30465
  nodes (total)    :      93939 (63447 internal, 30492 leaves)
  nodes left       :      32688
  max depth        :         72
  max depth (total):         72
  backtracks       :      15458 (16.5%)
  early backtracks :          0 (0.0%)
  nodes exc. ref.  :          0 (0.0%)
  delayed cutoffs  :          1
  repropagations   :       1072 (421 domain reductions, 0 cutoffs)
  avg switch length:       4.80
  switching time   :     123.33
Estim. Tree Size   :     188414
Estimation Tree    : 126895 nodes (94207 visited, 63447 internal, 30760 leaves, 32688 open), weight: 0.0000 completed 0.0897
Estimations        :      estim      value      trend resolution     smooth
  wbe              : 9492991034978          -          -          -          -
  tree-profile     :         -1          -          -          -          -
  gap              :     815379    0.68569    0.00003         32     790307
  tree-weight      :     188414    0.00000    0.00000         32     188317
  leaf-frequency   :     488295    0.32651    0.00003         32     522146
  ssg              :    5561538    0.85841   -0.00001         32    5327192
  open-nodes       :     188414 32688.00000    9.27822         32     188317
Root Node          :
  First LP value   : -1.00000000000000e+00
  First LP Iters   :       1597 (10646.67 Iter/sec)
  First LP Time    :       0.15
  Final Dual Bound : -9.49048821548822e-01
  Final Root Iters :       3413
  Root LP Estimate : -4.00109067798070e-01
Solution           :
  Solutions found  :         44 (37 improvements)
  First Solution   : +1.00000000000000e+05   (in run 1, after 0 nodes, 0.00 seconds, depth 0, found by <trivial>)
  Gap First Sol.   :   infinite
  Gap Last Sol.    :      46.71 %
  Primal Bound     : -5.73333333333331e-01   (in run 1, after 81750 nodes, 2780.73 seconds, depth 40, found by <alns>)
  Dual Bound       : -8.36136861952862e-01
  Gap              :      45.84 %
Integrals          :      Total       Avg%
  primal-dual      :  125008.81      34.72
  primal-ref       :          -          - (not evaluated)
  dual-ref         :          -          - (not evaluated)
